(set-option :produce-models true)
(set-logic QF_LRA)
(set-info :notes | Strip-packing problem.|)
(declare-fun x0 () Real)
(declare-fun y0 () Real)
(declare-fun x1 () Real)
(declare-fun y1 () Real)
(declare-fun x2 () Real)
(declare-fun y2 () Real)
(declare-fun x3 () Real)
(declare-fun y3 () Real)
(declare-fun x4 () Real)
(declare-fun y4 () Real)
(declare-fun x5 () Real)
(declare-fun y5 () Real)
(declare-fun x6 () Real)
(declare-fun y6 () Real)
(declare-fun x7 () Real)
(declare-fun y7 () Real)
(declare-fun x8 () Real)
(declare-fun y8 () Real)
(declare-fun z () Real)
(declare-fun c () Real)
(assert (and (= c z) (and (>= x0 0) 
(and (>= y0 0) 
(and (>= x1 0) 
(and (>= y1 0) 
(and (>= x2 0) 
(and (>= y2 0) 
(and (>= x3 0) 
(and (>= y3 0) 
(and (>= x4 0) 
(and (>= y4 0) 
(and (>= x5 0) 
(and (>= y5 0) 
(and (>= x6 0) 
(and (>= y6 0) 
(and (>= x7 0) 
(and (>= y7 0) 
(and (>= x8 0) 
(and (>= y8 0) 
(and (>= z 0) 
(and (>= c 0) 
(and (<= (+ x0 0.4297251737) z) 
(and (<= 0.5285026643 y0) 
(and (<= y0 1.5) 
(and (<= x0 (- 1.9465281212 0.4297251737)) 
(and (>= x0 0) 
(and (<= (+ x1 0.5789553857) z) 
(and (<= 0.4350852702 y1) 
(and (<= y1 1.5) 
(and (<= x1 (- 1.9465281212 0.5789553857)) 
(and (>= x1 0) 
(and (<= (+ x2 0.4418595523) z) 
(and (<= 0.4111498723 y2) 
(and (<= y2 1.5) 
(and (<= x2 (- 1.9465281212 0.4418595523)) 
(and (>= x2 0) 
(and (<= (+ x3 0.4274177949) z) 
(and (<= 0.3689613839 y3) 
(and (<= y3 1.5) 
(and (<= x3 (- 1.9465281212 0.4274177949)) 
(and (>= x3 0) 
(and (<= (+ x4 0.3582056769) z) 
(and (<= 0.3663749114 y4) 
(and (<= y4 1.5) 
(and (<= x4 (- 1.9465281212 0.3582056769)) 
(and (>= x4 0) 
(and (<= (+ x5 0.3273895103) z) 
(and (<= 0.1911948167 y5) 
(and (<= y5 1.5) 
(and (<= x5 (- 1.9465281212 0.3273895103)) 
(and (>= x5 0) 
(and (<= (+ x6 0.9378475618) z) 
(and (<= 0.1379207967 y6) 
(and (<= y6 1.5) 
(and (<= x6 (- 1.9465281212 0.9378475618)) 
(and (>= x6 0) 
(and (<= (+ x7 0.1992184236) z) 
(and (<= 0.0331232184 y7) 
(and (<= y7 1.5) 
(and (<= x7 (- 1.9465281212 0.1992184236)) 
(and (>= x7 0) 
(and (<= (+ x8 0.1616689799) z) 
(and (<= 0.0040509099 y8) 
(and (<= y8 1.5) 
(and (<= x8 (- 1.9465281212 0.1616689799)) 
(and (>= x8 0) 
(and (<= c 1.9465281212) 
(and (or (<= (+ x0 0.4297251737) x1) (or (<= (+ x1 0.5789553857) x0) (or (>= (- y0 0.5285026643) y1) (or (>= (- y1 0.4350852702) y0))))) 
(and (or (<= (+ x0 0.4297251737) x2) (or (<= (+ x2 0.4418595523) x0) (or (>= (- y0 0.5285026643) y2) (or (>= (- y2 0.4111498723) y0))))) 
(and (or (<= (+ x0 0.4297251737) x3) (or (<= (+ x3 0.4274177949) x0) (or (>= (- y0 0.5285026643) y3) (or (>= (- y3 0.3689613839) y0))))) 
(and (or (<= (+ x0 0.4297251737) x4) (or (<= (+ x4 0.3582056769) x0) (or (>= (- y0 0.5285026643) y4) (or (>= (- y4 0.3663749114) y0))))) 
(and (or (<= (+ x0 0.4297251737) x5) (or (<= (+ x5 0.3273895103) x0) (or (>= (- y0 0.5285026643) y5) (or (>= (- y5 0.1911948167) y0))))) 
(and (or (<= (+ x0 0.4297251737) x6) (or (<= (+ x6 0.9378475618) x0) (or (>= (- y0 0.5285026643) y6) (or (>= (- y6 0.1379207967) y0))))) 
(and (or (<= (+ x0 0.4297251737) x7) (or (<= (+ x7 0.1992184236) x0) (or (>= (- y0 0.5285026643) y7) (or (>= (- y7 0.0331232184) y0))))) 
(and (or (<= (+ x0 0.4297251737) x8) (or (<= (+ x8 0.1616689799) x0) (or (>= (- y0 0.5285026643) y8) (or (>= (- y8 0.0040509099) y0))))) 
(and (or (<= (+ x1 0.5789553857) x2) (or (<= (+ x2 0.4418595523) x1) (or (>= (- y1 0.4350852702) y2) (or (>= (- y2 0.4111498723) y1))))) 
(and (or (<= (+ x1 0.5789553857) x3) (or (<= (+ x3 0.4274177949) x1) (or (>= (- y1 0.4350852702) y3) (or (>= (- y3 0.3689613839) y1))))) 
(and (or (<= (+ x1 0.5789553857) x4) (or (<= (+ x4 0.3582056769) x1) (or (>= (- y1 0.4350852702) y4) (or (>= (- y4 0.3663749114) y1))))) 
(and (or (<= (+ x1 0.5789553857) x5) (or (<= (+ x5 0.3273895103) x1) (or (>= (- y1 0.4350852702) y5) (or (>= (- y5 0.1911948167) y1))))) 
(and (or (<= (+ x1 0.5789553857) x6) (or (<= (+ x6 0.9378475618) x1) (or (>= (- y1 0.4350852702) y6) (or (>= (- y6 0.1379207967) y1))))) 
(and (or (<= (+ x1 0.5789553857) x7) (or (<= (+ x7 0.1992184236) x1) (or (>= (- y1 0.4350852702) y7) (or (>= (- y7 0.0331232184) y1))))) 
(and (or (<= (+ x1 0.5789553857) x8) (or (<= (+ x8 0.1616689799) x1) (or (>= (- y1 0.4350852702) y8) (or (>= (- y8 0.0040509099) y1))))) 
(and (or (<= (+ x2 0.4418595523) x3) (or (<= (+ x3 0.4274177949) x2) (or (>= (- y2 0.4111498723) y3) (or (>= (- y3 0.3689613839) y2))))) 
(and (or (<= (+ x2 0.4418595523) x4) (or (<= (+ x4 0.3582056769) x2) (or (>= (- y2 0.4111498723) y4) (or (>= (- y4 0.3663749114) y2))))) 
(and (or (<= (+ x2 0.4418595523) x5) (or (<= (+ x5 0.3273895103) x2) (or (>= (- y2 0.4111498723) y5) (or (>= (- y5 0.1911948167) y2))))) 
(and (or (<= (+ x2 0.4418595523) x6) (or (<= (+ x6 0.9378475618) x2) (or (>= (- y2 0.4111498723) y6) (or (>= (- y6 0.1379207967) y2))))) 
(and (or (<= (+ x2 0.4418595523) x7) (or (<= (+ x7 0.1992184236) x2) (or (>= (- y2 0.4111498723) y7) (or (>= (- y7 0.0331232184) y2))))) 
(and (or (<= (+ x2 0.4418595523) x8) (or (<= (+ x8 0.1616689799) x2) (or (>= (- y2 0.4111498723) y8) (or (>= (- y8 0.0040509099) y2))))) 
(and (or (<= (+ x3 0.4274177949) x4) (or (<= (+ x4 0.3582056769) x3) (or (>= (- y3 0.3689613839) y4) (or (>= (- y4 0.3663749114) y3))))) 
(and (or (<= (+ x3 0.4274177949) x5) (or (<= (+ x5 0.3273895103) x3) (or (>= (- y3 0.3689613839) y5) (or (>= (- y5 0.1911948167) y3))))) 
(and (or (<= (+ x3 0.4274177949) x6) (or (<= (+ x6 0.9378475618) x3) (or (>= (- y3 0.3689613839) y6) (or (>= (- y6 0.1379207967) y3))))) 
(and (or (<= (+ x3 0.4274177949) x7) (or (<= (+ x7 0.1992184236) x3) (or (>= (- y3 0.3689613839) y7) (or (>= (- y7 0.0331232184) y3))))) 
(and (or (<= (+ x3 0.4274177949) x8) (or (<= (+ x8 0.1616689799) x3) (or (>= (- y3 0.3689613839) y8) (or (>= (- y8 0.0040509099) y3))))) 
(and (or (<= (+ x4 0.3582056769) x5) (or (<= (+ x5 0.3273895103) x4) (or (>= (- y4 0.3663749114) y5) (or (>= (- y5 0.1911948167) y4))))) 
(and (or (<= (+ x4 0.3582056769) x6) (or (<= (+ x6 0.9378475618) x4) (or (>= (- y4 0.3663749114) y6) (or (>= (- y6 0.1379207967) y4))))) 
(and (or (<= (+ x4 0.3582056769) x7) (or (<= (+ x7 0.1992184236) x4) (or (>= (- y4 0.3663749114) y7) (or (>= (- y7 0.0331232184) y4))))) 
(and (or (<= (+ x4 0.3582056769) x8) (or (<= (+ x8 0.1616689799) x4) (or (>= (- y4 0.3663749114) y8) (or (>= (- y8 0.0040509099) y4))))) 
(and (or (<= (+ x5 0.3273895103) x6) (or (<= (+ x6 0.9378475618) x5) (or (>= (- y5 0.1911948167) y6) (or (>= (- y6 0.1379207967) y5))))) 
(and (or (<= (+ x5 0.3273895103) x7) (or (<= (+ x7 0.1992184236) x5) (or (>= (- y5 0.1911948167) y7) (or (>= (- y7 0.0331232184) y5))))) 
(and (or (<= (+ x5 0.3273895103) x8) (or (<= (+ x8 0.1616689799) x5) (or (>= (- y5 0.1911948167) y8) (or (>= (- y8 0.0040509099) y5))))) 
(and (or (<= (+ x6 0.9378475618) x7) (or (<= (+ x7 0.1992184236) x6) (or (>= (- y6 0.1379207967) y7) (or (>= (- y7 0.0331232184) y6))))) 
(and (or (<= (+ x6 0.9378475618) x8) (or (<= (+ x8 0.1616689799) x6) (or (>= (- y6 0.1379207967) y8) (or (>= (- y8 0.0040509099) y6))))) 
(and (or (<= (+ x7 0.1992184236) x8) (or (<= (+ x8 0.1616689799) x7) (or (>= (- y7 0.0331232184) y8) (or (>= (- y8 0.0040509099) y7))))) ))))))))))))))))))))))))))))))))))))))))))))))))))))))))))))))))))))))))))))))))))))))))))))))))))))))))
(minimize c)
(check-sat)
(get-objectives)
(exit)
